7
0, 512, 538, 33, 555, 635, 715
512, 0, 201, 488, 153, 401, 574
538, 201, 0, 507, 60, 200, 373
33, 488, 507, 0, 525, 601, 681
555, 153, 60, 525, 0, 253, 428
635, 401, 200, 601, 253, 0, 177
715, 574, 373, 681, 428, 177, 0
